Route #1: 33 65 8 40 58 32
Route #2: 24 36 21 4 60 15 3 29 39 14 27
Route #3: 49 12 9 5 42
Route #4: 6 2 10 26 46 63 1
Route #5: 7 30 37 61 47 28 50
Route #6: 16 62 48 25 59 44 64 35 19
Route #7: 18 23 38 57 11 55
Route #8: 45 31 13 56 22 43 34 51
Route #9: 41 17 20 53 54 52
Cost 1317
Time 0.443108
Tempo = 0.4545862000013585